167
1000
305
655
230
531
193
260
134
807
528
698
399
185
190
228
2
472
291
43
469
37
268
281
678
44
836
619
947
206
406
318
237
47
555
239
923
263
412
543
916
381
203
779
151
608
186
40
536
182
627
726
56
46
242
277
81
586
426
359
247
267
441
238
641
574
959
154
369
943
245
512
392
84
588
631
721
319
386
302
17
77
5
4
476
594
763
313
322
954
154
210
775
31
605
295
160
164
723
100
524
488
154
162
266
697
227
996
261
829
644
81
683
57
454
484
729
315
222
298
468
147
34
213
171
367
142
112
8
317
997
528
41
858
344
75
225
170
64
254
487
983
987
31
170
71
195
67
84
258
603
54
149
464
53
13
309
128
516
319
234
157
209
1
308
59
849
485
9
